* ENCODING=ISO-8859-1
NAME          CPLEX
ROWS
 N  obj1    
 G  c1      
 G  c2      
 G  c3      
 G  c4      
 G  c5      
 G  c6      
 G  c7      
 G  c8      
 G  c9      
 G  c10     
 G  c11     
 G  c12     
 G  c13     
 G  c14     
 G  c15     
 G  c16     
 G  c17     
 G  c18     
 G  c19     
 G  c20     
 G  c21     
 G  c22     
 G  c23     
 G  c24     
 G  c25     
COLUMNS
    MARK0000  'MARKER'                 'INTORG'
    x1        obj1                            1
    x1        c3                            255
    x1        c17                           947
    x1        c20                           801
    x2        obj1                            1
    x2        c1                            651
    x2        c5                            127
    x2        c7                            866
    x2        c10                           584
    x3        obj1                            1
    x3        c1                            500
    x3        c3                            995
    x3        c8                            581
    x3        c21                           184
    x3        c22                           899
    x4        obj1                            1
    x4        c4                            111
    x4        c22                           690
    x5        obj1                            1
    x5        c8                            556
    x5        c12                           533
    x5        c14                           213
    x6        obj1                            1
    x6        c15                           766
    x6        c19                           180
    x6        c21                           260
    x6        c23                           130
    x7        obj1                            1
    x7        c9                            511
    x7        c13                           695
    x7        c22                           717
    x8        obj1                            1
    x8        c13                           604
    x8        c22                           455
    x9        obj1                            1
    x10       obj1                            1
    x10       c11                           850
    x11       obj1                            1
    x11       c5                            556
    x11       c14                           883
    x11       c18                           850
    x12       obj1                            1
    x12       c6                            328
    x12       c19                           847
    x13       obj1                            1
    x13       c4                            661
    x13       c16                           759
    x13       c18                           760
    x13       c24                           578
    x14       obj1                            1
    x14       c16                           901
    x15       obj1                            1
    x15       c7                            324
    x15       c8                            514
    x15       c19                           719
    x16       obj1                            1
    x17       obj1                            1
    x17       c16                           358
    x17       c21                           747
    x17       c24                           768
    x18       obj1                            1
    x18       c6                            559
    x18       c17                           439
    x19       obj1                            1
    x19       c16                           873
    x20       obj1                            1
    x20       c2                            469
    x20       c20                           516
    x21       obj1                            1
    x21       c1                            435
    x21       c9                            179
    x21       c23                           288
    x22       obj1                            1
    x22       c15                           624
    x23       obj1                            1
    x23       c1                            138
    x23       c4                            560
    x23       c7                            225
    x23       c10                           598
    x23       c11                           178
    x23       c18                           995
    x23       c22                           138
    x24       obj1                            1
    x24       c24                           942
    x24       c25                           610
    x25       obj1                            1
    x25       c5                            435
    x25       c18                           908
    x26       obj1                            1
    x26       c10                           296
    x26       c18                           618
    x27       obj1                            1
    x27       c3                            127
    x27       c6                            701
    x27       c9                            141
    x27       c10                           210
    x27       c15                           322
    x27       c24                           725
    x28       obj1                            1
    x28       c21                           373
    x29       obj1                            1
    x29       c1                            762
    x30       obj1                            1
    x30       c1                            951
    x31       obj1                            1
    x31       c6                            449
    x31       c7                            849
    x31       c11                           965
    x31       c13                           387
    x31       c14                           858
    x31       c19                           718
    x32       obj1                            1
    x32       c4                            253
    x32       c14                           508
    x33       obj1                            1
    x33       c5                            823
    x34       obj1                            1
    x34       c5                            713
    x34       c10                           591
    x34       c17                           558
    x34       c25                           423
    x35       obj1                            1
    x35       c19                           787
    x35       c21                           622
    x36       obj1                            1
    x36       c1                            409
    x36       c14                           250
    x37       obj1                            1
    x37       c4                            542
    x37       c14                           106
    x37       c22                           582
    x38       obj1                            1
    x38       c16                           614
    x39       obj1                            1
    x39       c4                            440
    x39       c11                           610
    x40       obj1                            1
    x40       c2                            692
    x40       c12                           353
    x40       c19                           871
    x40       c20                           428
    x40       c21                           980
    x40       c24                           957
    x40       c25                           485
    x41       obj1                            1
    x41       c8                            382
    x41       c10                           739
    x41       c12                           353
    x42       obj1                            1
    x42       c2                            175
    x42       c13                           862
    x43       obj1                            1
    x43       c5                            467
    x43       c13                           629
    x43       c15                           191
    x43       c23                           177
    x44       obj1                            1
    x44       c4                            152
    x44       c6                            221
    x44       c8                            988
    x44       c10                           932
    x44       c11                           773
    x44       c12                           414
    x44       c25                           369
    x45       obj1                            1
    x45       c3                            286
    x45       c8                            374
    x45       c13                           644
    x45       c19                           866
    x46       obj1                            1
    x46       c14                           960
    x46       c24                           336
    x47       obj1                            1
    x47       c3                            950
    x47       c11                           669
    x47       c24                           399
    x48       obj1                            1
    x48       c3                            576
    x49       obj1                            1
    x49       c8                            714
    x49       c18                           323
    x50       obj1                            1
    x50       c13                           486
    x50       c18                           172
    MARK0001  'MARKER'                 'INTEND'
RHS
    rhs       c1                           1923
    rhs       c2                            668
    rhs       c3                           1595
    rhs       c4                           1360
    rhs       c5                           1561
    rhs       c6                           1129
    rhs       c7                           1132
    rhs       c8                           2055
    rhs       c9                            416
    rhs       c10                          1975
    rhs       c11                          2023
    rhs       c12                           827
    rhs       c13                          2154
    rhs       c14                          1889
    rhs       c15                           952
    rhs       c16                          1753
    rhs       c17                           972
    rhs       c18                          2313
    rhs       c19                          2494
    rhs       c20                           873
    rhs       c21                          1583
    rhs       c22                          1741
    rhs       c23                           298
    rhs       c24                          2353
    rhs       c25                           944
BOUNDS
 LI bnd       x1        0
 LI bnd       x2        0
 LI bnd       x3        0
 LI bnd       x4        0
 LI bnd       x5        0
 LI bnd       x6        0
 LI bnd       x7        0
 LI bnd       x8        0
 LI bnd       x9        0
 LI bnd       x10       0
 LI bnd       x11       0
 LI bnd       x12       0
 LI bnd       x13       0
 LI bnd       x14       0
 LI bnd       x15       0
 LI bnd       x16       0
 LI bnd       x17       0
 LI bnd       x18       0
 LI bnd       x19       0
 LI bnd       x20       0
 LI bnd       x21       0
 LI bnd       x22       0
 LI bnd       x23       0
 LI bnd       x24       0
 LI bnd       x25       0
 LI bnd       x26       0
 LI bnd       x27       0
 LI bnd       x28       0
 LI bnd       x29       0
 LI bnd       x30       0
 LI bnd       x31       0
 LI bnd       x32       0
 LI bnd       x33       0
 LI bnd       x34       0
 LI bnd       x35       0
 LI bnd       x36       0
 LI bnd       x37       0
 LI bnd       x38       0
 LI bnd       x39       0
 LI bnd       x40       0
 LI bnd       x41       0
 LI bnd       x42       0
 LI bnd       x43       0
 LI bnd       x44       0
 LI bnd       x45       0
 LI bnd       x46       0
 LI bnd       x47       0
 LI bnd       x48       0
 LI bnd       x49       0
 LI bnd       x50       0
ENDATA
